(declare-fun i27.i.i_0_115 () (_ BitVec 64))
(declare-fun cond17.i.i_0_117 () (_ BitVec 64))
(declare-fun i26.i.i_0_114 () (_ BitVec 64))
(declare-fun cmp12.i.i_0_116 () (_ BitVec 1))
(declare-fun dst_reg_0_83 () (_ BitVec 64))
(declare-fun dst_reg_0_51 () (_ BitVec 64))
(declare-fun i25.i.i_0_111 () (_ BitVec 64))
(declare-fun cond.i250.i_0_113 () (_ BitVec 64))
(declare-fun i.i245.i_0_105 () (_ BitVec 64))
(declare-fun cmp4.i.i_0_112 () (_ BitVec 1))
(declare-fun dst_reg_0_82 () (_ BitVec 64))
(declare-fun retval.0.i.i_0_35 () (_ BitVec 1))
(declare-fun retval.0.i39.i_0_42 () (_ BitVec 1))
(declare-fun cmp26.i_0_67 () (_ BitVec 1))
(declare-fun cmp31.i_0_71 () (_ BitVec 1))
(declare-fun cmp.i246.i_0_107 () (_ BitVec 1))
(declare-fun cmp1.i248.i_0_110 () (_ BitVec 1))
(declare-fun i24.i.i_0_108 () (_ BitVec 64))
(declare-fun src_reg1.sroa.24.0.copyload_0_27 () (_ BitVec 64))
(declare-fun i26.i_0_68 () (_ BitVec 64))
(declare-fun add40.i_0_74 () (_ BitVec 64))
(declare-fun cmp40.i.i_0_125 () (_ BitVec 1))
(declare-fun i29.i.i_0_121 () (_ BitVec 64))
(declare-fun cmp21.i.i_0_120 () (_ BitVec 1))
(declare-fun i28.i.i_0_118 () (_ BitVec 64))
(declare-fun cond36.i.i_0_123 () (_ BitVec 64))
(declare-fun cmp31.i.i_0_122 () (_ BitVec 1))
(declare-fun dst_reg_0_84 () (_ BitVec 32))
(declare-fun dst_reg_0_54 () (_ BitVec 32))
(declare-fun add25.i_0_66 () (_ BitVec 64))
(declare-fun dst_reg_0_81 () (_ BitVec 64))
(declare-fun dst_reg_0_80 () (_ BitVec 64))
(declare-fun dst_reg_0_50 () (_ BitVec 64))
(declare-fun dst_reg_0_79 () (_ BitVec 64))
(declare-fun dst_reg_0_49 () (_ BitVec 64))
(declare-fun dst_reg_0_78 () (_ BitVec 64))
(declare-fun dst_reg_0_48 () (_ BitVec 64))
(declare-fun dst_reg_0_77 () (_ BitVec 32))
(declare-fun dst_reg_0_47 () (_ BitVec 32))
(declare-fun dst_reg_0_76 () (_ BitVec 32))
(declare-fun dst_reg_0_46 () (_ BitVec 32))
(declare-fun dst_reg_0_75 () (_ BitVec 32))
(declare-fun dst_reg_0_45 () (_ BitVec 32))
(declare-fun src_reg_0_94 () (_ BitVec 32))
(declare-fun src_reg_0_64 () (_ BitVec 32))
(declare-fun src_reg_0_93 () (_ BitVec 64))
(declare-fun src_reg_0_63 () (_ BitVec 64))
(declare-fun src_reg_0_92 () (_ BitVec 64))
(declare-fun src_reg_0_62 () (_ BitVec 64))
(declare-fun src_reg_0_91 () (_ BitVec 64))
(declare-fun src_reg_0_61 () (_ BitVec 64))
(declare-fun src_reg_0_90 () (_ BitVec 64))
(declare-fun src_reg_0_60 () (_ BitVec 64))
(declare-fun src_reg_0_89 () (_ BitVec 64))
(declare-fun src_reg_0_59 () (_ BitVec 64))
(declare-fun src_reg_0_88 () (_ BitVec 64))
(declare-fun src_reg_0_58 () (_ BitVec 64))
(declare-fun src_reg_0_87 () (_ BitVec 32))
(declare-fun src_reg_0_57 () (_ BitVec 32))
(declare-fun src_reg_0_86 () (_ BitVec 32))
(declare-fun src_reg_0_56 () (_ BitVec 32))
(declare-fun src_reg_0_85 () (_ BitVec 32))
(declare-fun src_reg_0_55 () (_ BitVec 32))
(declare-fun neg.i.i_0_103 () (_ BitVec 64))
(declare-fun add3.i.i_0_97 () (_ BitVec 64))
(declare-fun and.i.i_0_104 () (_ BitVec 64))
(declare-fun or7.i.i_0_101 () (_ BitVec 64))
(declare-fun xor.i.i_0_99 () (_ BitVec 64))
(declare-fun or.i.i_0_100 () (_ BitVec 64))
(declare-fun src_reg1.sroa.11.0.copyload_0_23 () (_ BitVec 64))
(declare-fun i20.i_0_28 () (_ BitVec 64))
(declare-fun add4.i.i_0_98 () (_ BitVec 64))
(declare-fun add.i40.i_0_96 () (_ BitVec 64))
(declare-fun src_reg1.sroa.3.0.copyload_0_22 () (_ BitVec 64))
(declare-fun i28.i_0_95 () (_ BitVec 64))
(declare-fun dst_reg_0_3 () (_ BitVec 64))
(declare-fun i27.i_0_70 () (_ BitVec 64))
(declare-fun dst_reg_0_8 () (_ BitVec 64))
(declare-fun dst_reg_0_9 () (_ BitVec 32))
(declare-fun dst_reg_0_53 () (_ BitVec 64))
(declare-fun dst_reg_0_52 () (_ BitVec 64))
(declare-fun dst_reg_0_7 () (_ BitVec 64))
(declare-fun add.i35.i_0_37 () (_ BitVec 64))
(declare-fun add.i.i_0_30 () (_ BitVec 64))
(declare-fun dst_reg_0_4 () (_ BitVec 64))
(declare-fun dst_reg_0_2 () (_ BitVec 32))
(declare-fun dst_reg_0_1 () (_ BitVec 32))
(declare-fun src_reg_0_19 () (_ BitVec 32))
(declare-fun src_reg_0_18 () (_ BitVec 64))
(declare-fun src_reg_0_17 () (_ BitVec 64))
(declare-fun src_reg_0_16 () (_ BitVec 64))
(declare-fun src_reg_0_15 () (_ BitVec 64))
(declare-fun src_reg_0_14 () (_ BitVec 64))
(declare-fun src_reg_0_13 () (_ BitVec 64))
(declare-fun src_reg_0_12 () (_ BitVec 32))
(declare-fun src_reg_0_11 () (_ BitVec 32))
(declare-fun src_reg1.sroa.21.0.copyload_0_26 () (_ BitVec 64))
(declare-fun i25.i_0_65 () (_ BitVec 64))
(declare-fun cmp2.i.i_0_34 () (_ BitVec 1))
(declare-fun cmp1.i.i_0_33 () (_ BitVec 1))
(declare-fun cmp.i.i_0_32 () (_ BitVec 1))
(declare-fun i23.i_0_29 () (_ BitVec 64))
(declare-fun src_reg1.sroa.15.0.copyload_0_24 () (_ BitVec 64))
(declare-fun dst_reg_0_5 () (_ BitVec 64))
(declare-fun src_reg1.sroa.18.0.copyload_0_25 () (_ BitVec 64))
(declare-fun src_reg_0_10 () (_ BitVec 32))
(declare-fun dst_reg_0_6 () (_ BitVec 64))
(declare-fun dst_reg_0_0 () (_ BitVec 32))
(declare-fun cmp2.i38.i_0_41 () (_ BitVec 1))
(declare-fun cmp1.i37.i_0_40 () (_ BitVec 1))
(declare-fun cmp.i36.i_0_39 () (_ BitVec 1))
(declare-fun i24.i_0_36 () (_ BitVec 64))
(declare-fun cond53.i.i_0_127 () (_ BitVec 64))
(declare-fun cmp48.i.i_0_126 () (_ BitVec 1))
(declare-fun src_reg_0_237 () (_ BitVec 32))
(declare-fun src_reg_0_147 () (_ BitVec 32))
(declare-fun src_reg_0_236 () (_ BitVec 64))
(declare-fun src_reg_0_146 () (_ BitVec 64))
(declare-fun src_reg_0_235 () (_ BitVec 64))
(declare-fun src_reg_0_145 () (_ BitVec 64))
(declare-fun src_reg_0_234 () (_ BitVec 64))
(declare-fun src_reg_0_144 () (_ BitVec 64))
(declare-fun src_reg_0_233 () (_ BitVec 64))
(declare-fun src_reg_0_143 () (_ BitVec 64))
(declare-fun src_reg_0_232 () (_ BitVec 64))
(declare-fun src_reg_0_142 () (_ BitVec 64))
(declare-fun src_reg_0_231 () (_ BitVec 64))
(declare-fun src_reg_0_141 () (_ BitVec 64))
(declare-fun src_reg_0_230 () (_ BitVec 32))
(declare-fun src_reg_0_140 () (_ BitVec 32))
(declare-fun src_reg_0_229 () (_ BitVec 32))
(declare-fun src_reg_0_139 () (_ BitVec 32))
(declare-fun src_reg_0_228 () (_ BitVec 32))
(declare-fun src_reg_0_138 () (_ BitVec 32))
(declare-fun dst_reg_0_227 () (_ BitVec 32))
(declare-fun dst_reg_0_137 () (_ BitVec 32))
(declare-fun dst_reg_0_226 () (_ BitVec 64))
(declare-fun dst_reg_0_136 () (_ BitVec 64))
(declare-fun dst_reg_0_225 () (_ BitVec 64))
(declare-fun dst_reg_0_135 () (_ BitVec 64))
(declare-fun dst_reg_0_224 () (_ BitVec 64))
(declare-fun dst_reg_0_134 () (_ BitVec 64))
(declare-fun dst_reg_0_223 () (_ BitVec 64))
(declare-fun dst_reg_0_133 () (_ BitVec 64))
(declare-fun dst_reg_0_222 () (_ BitVec 64))
(declare-fun and.i1.i260.i_0_213 () (_ BitVec 64))
(declare-fun dst_reg_0_221 () (_ BitVec 64))
(declare-fun and4.i.i.i_0_216 () (_ BitVec 64))
(declare-fun dst_reg_0_220 () (_ BitVec 32))
(declare-fun dst_reg_0_130 () (_ BitVec 32))
(declare-fun dst_reg_0_219 () (_ BitVec 32))
(declare-fun dst_reg_0_129 () (_ BitVec 32))
(declare-fun dst_reg_0_218 () (_ BitVec 32))
(declare-fun dst_reg_0_128 () (_ BitVec 32))
(declare-fun retval.0.i.i.i.i_0_199 () (_ BitVec 32))
(declare-fun cmp.i.i.i.i_0_152 () (_ BitVec 1))
(declare-fun phi.bo_0_198 () (_ BitVec 32))
(declare-fun neg.i.i.i_0_215 () (_ BitVec 64))
(declare-fun or.i.i259.i_0_212 () (_ BitVec 64))
(declare-fun retval.sroa.3.0.i.i.i_0_211 () (_ BitVec 64))
(declare-fun retval.sroa.0.0.i.i.i_0_209 () (_ BitVec 64))
(declare-fun sub.i.i.i_0_206 () (_ BitVec 64))
(declare-fun cmp.i.i.i_0_201 () (_ BitVec 1))
(declare-fun and.i.i256.i_0_207 () (_ BitVec 64))
(declare-fun i.i253.i_0_148 () (_ BitVec 64))
(declare-fun notmask.i.i.i_0_204 () (_ BitVec 64))
(declare-fun sh_prom.i.i.i_0_202 () (_ BitVec 64))
(declare-fun dst_reg_0_132 () (_ BitVec 64))
(declare-fun dst_reg_0_131 () (_ BitVec 64))
(declare-fun xor.i.i.i_0_150 () (_ BitVec 64))
(declare-fun i5.i255.i_0_149 () (_ BitVec 64))
(declare-fun conv.i.i.i.i_0_196 () (_ BitVec 32))
(declare-fun i.i.i.i.i.i.neg_0_195 () (_ BitVec 32))
(declare-fun num.4.i.i.i.i.i_0_192 () (_ BitVec 32))
(declare-fun word.addr.4.lobit.i.i.i.i.i.neg_0_194 () (_ BitVec 64))
(declare-fun word.addr.4.i.i.i.i.i_0_191 () (_ BitVec 64))
(declare-fun num.3.i.i.i.i.i_0_184 () (_ BitVec 32))
(declare-fun sub22.i.i.i.i.i_0_188 () (_ BitVec 32))
(declare-fun tobool20.not.i.i.i.i.i_0_186 () (_ BitVec 1))
(declare-fun word.addr.3.i.i.i.i.i_0_183 () (_ BitVec 64))
(declare-fun shl23.i.i.i.i.i_0_190 () (_ BitVec 64))
(declare-fun num.2.i.i.i.i.i_0_176 () (_ BitVec 32))
(declare-fun sub16.i.i.i.i.i_0_180 () (_ BitVec 32))
(declare-fun tobool14.not.i.i.i.i.i_0_178 () (_ BitVec 1))
(declare-fun word.addr.2.i.i.i.i.i_0_175 () (_ BitVec 64))
(declare-fun shl17.i.i.i.i.i_0_182 () (_ BitVec 64))
(declare-fun num.1.i.i.i.i.i_0_168 () (_ BitVec 32))
(declare-fun sub10.i.i.i.i.i_0_172 () (_ BitVec 32))
(declare-fun tobool8.not.i.i.i.i.i_0_170 () (_ BitVec 1))
(declare-fun word.addr.1.i.i.i.i.i_0_167 () (_ BitVec 64))
(declare-fun shl11.i.i.i.i.i_0_174 () (_ BitVec 64))
(declare-fun spec.select17.i.i.i.i.i_0_160 () (_ BitVec 32))
(declare-fun sub4.i.i.i.i.i_0_164 () (_ BitVec 32))
(declare-fun tobool2.not.i.i.i.i.i_0_162 () (_ BitVec 1))
(declare-fun spec.select.i.i.i.i.i_0_157 () (_ BitVec 64))
(declare-fun shl5.i.i.i.i.i_0_166 () (_ BitVec 64))
(declare-fun tobool.not.i.i.i.i.i_0_154 () (_ BitVec 1))
(declare-fun shl.i.i.i.i.i_0_156 () (_ BitVec 64))
(assert (let ((a!1 (or (and (= retval.0.i39.i_0_42 #b1) (= retval.0.i.i_0_35 #b0))
               (= retval.0.i.i_0_35 #b1)))
      (a!14 (=> (= retval.0.i.i_0_35 #b0)
                (and (= dst_reg_0_6 i24.i_0_36)
                     (= add.i35.i_0_37
                        (bvadd i24.i_0_36 src_reg1.sroa.18.0.copyload_0_25))
                     (ite (bvslt src_reg1.sroa.18.0.copyload_0_25
                                 #x0000000000000000)
                          (= cmp.i36.i_0_39 #b1)
                          (= cmp.i36.i_0_39 #b0))
                     (ite (bvsgt add.i35.i_0_37 i24.i_0_36)
                          (= cmp1.i37.i_0_40 #b1)
                          (= cmp1.i37.i_0_40 #b0))
                     (ite (bvslt add.i35.i_0_37 i24.i_0_36)
                          (= cmp2.i38.i_0_41 #b1)
                          (= cmp2.i38.i_0_41 #b0))
                     (ite (= cmp.i36.i_0_39 #b1)
                          (= retval.0.i39.i_0_42 cmp1.i37.i_0_40)
                          (= retval.0.i39.i_0_42 cmp2.i38.i_0_41))))))
(let ((a!2 (and (= cmp26.i_0_67 #b0)
                (or (and (= retval.0.i39.i_0_42 #b0) (= retval.0.i.i_0_35 #b0))
                    a!1)))
      (a!3 (and (= cmp26.i_0_67 #b1)
                (or (and (= retval.0.i39.i_0_42 #b0) (= retval.0.i.i_0_35 #b0))
                    a!1)))
      (a!15 (and (= dst_reg_0_7 i25.i_0_65)
                 (= add25.i_0_66
                    (bvadd i25.i_0_65 src_reg1.sroa.21.0.copyload_0_26))
                 (ite (bvult add25.i_0_66 src_reg1.sroa.21.0.copyload_0_26)
                      (= cmp26.i_0_67 #b1)
                      (= cmp26.i_0_67 #b0))
                 (=> a!1
                     (and (= #x00000001 src_reg_0_55)
                          (= src_reg_0_11 src_reg_0_56)
                          (= src_reg_0_12 src_reg_0_57)
                          (= src_reg_0_13 src_reg_0_58)
                          (= src_reg_0_14 src_reg_0_59)
                          (= src_reg_0_15 src_reg_0_60)
                          (= src_reg_0_16 src_reg_0_61)
                          (= src_reg_0_17 src_reg_0_62)
                          (= src_reg_0_18 src_reg_0_63)
                          (= src_reg_0_19 src_reg_0_64)
                          (= #x00000001 dst_reg_0_45)
                          (= dst_reg_0_1 dst_reg_0_46)
                          (= dst_reg_0_2 dst_reg_0_47)
                          (= dst_reg_0_3 dst_reg_0_48)
                          (= dst_reg_0_4 dst_reg_0_49)
                          (= #x8000000000000000 dst_reg_0_50)
                          (= #x7fffffffffffffff dst_reg_0_51)
                          (= dst_reg_0_7 dst_reg_0_52)
                          (= dst_reg_0_8 dst_reg_0_53)
                          (= dst_reg_0_9 dst_reg_0_54)))
                 (=> (and (= retval.0.i39.i_0_42 #b0) (= retval.0.i.i_0_35 #b0))
                     (and (= #x00000001 src_reg_0_55)
                          (= src_reg_0_11 src_reg_0_56)
                          (= src_reg_0_12 src_reg_0_57)
                          (= src_reg_0_13 src_reg_0_58)
                          (= src_reg_0_14 src_reg_0_59)
                          (= src_reg_0_15 src_reg_0_60)
                          (= src_reg_0_16 src_reg_0_61)
                          (= src_reg_0_17 src_reg_0_62)
                          (= src_reg_0_18 src_reg_0_63)
                          (= src_reg_0_19 src_reg_0_64)
                          (= #x00000001 dst_reg_0_45)
                          (= dst_reg_0_1 dst_reg_0_46)
                          (= dst_reg_0_2 dst_reg_0_47)
                          (= dst_reg_0_3 dst_reg_0_48)
                          (= dst_reg_0_4 dst_reg_0_49)
                          (= add.i.i_0_30 dst_reg_0_50)
                          (= add.i35.i_0_37 dst_reg_0_51)
                          (= dst_reg_0_7 dst_reg_0_52)
                          (= dst_reg_0_8 dst_reg_0_53)
                          (= dst_reg_0_9 dst_reg_0_54))))))
(let ((a!4 (or (and (= cmp31.i_0_71 #b0) a!2)
               (or (and (= cmp31.i_0_71 #b1) a!2) a!3)))
      (a!16 (=> (or (and (= retval.0.i39.i_0_42 #b0) (= retval.0.i.i_0_35 #b0))
                    a!1)
                a!15))
      (a!17 (=> a!2
                (and (= dst_reg_0_8 i26.i_0_68)
                     (= i27.i_0_70
                        (bvxor src_reg1.sroa.24.0.copyload_0_27
                               #xffffffffffffffff))
                     (ite (bvugt i26.i_0_68 i27.i_0_70)
                          (= cmp31.i_0_71 #b1)
                          (= cmp31.i_0_71 #b0)))))
      (a!18 (=> (or (and (= cmp31.i_0_71 #b1) a!2) a!3)
                (and (= src_reg_0_55 src_reg_0_85)
                     (= src_reg_0_56 src_reg_0_86)
                     (= src_reg_0_57 src_reg_0_87)
                     (= src_reg_0_58 src_reg_0_88)
                     (= src_reg_0_59 src_reg_0_89)
                     (= src_reg_0_60 src_reg_0_90)
                     (= src_reg_0_61 src_reg_0_91)
                     (= src_reg_0_62 src_reg_0_92)
                     (= src_reg_0_63 src_reg_0_93)
                     (= src_reg_0_64 src_reg_0_94)
                     (= dst_reg_0_45 dst_reg_0_75)
                     (= dst_reg_0_46 dst_reg_0_76)
                     (= dst_reg_0_47 dst_reg_0_77)
                     (= dst_reg_0_48 dst_reg_0_78)
                     (= dst_reg_0_49 dst_reg_0_79)
                     (= dst_reg_0_50 dst_reg_0_80)
                     (= dst_reg_0_51 dst_reg_0_81)
                     (= #x0000000000000000 dst_reg_0_82)
                     (= #xffffffffffffffff dst_reg_0_83)
                     (= dst_reg_0_54 dst_reg_0_84))))
      (a!23 (=> (and (= cmp31.i_0_71 #b0) a!2)
                (and (= add40.i_0_74
                        (bvadd i26.i_0_68 src_reg1.sroa.24.0.copyload_0_27))))))
(let ((a!5 (and (= cmp21.i.i_0_120 #b0)
                (and (= cmp1.i248.i_0_110 #b0)
                     (and (= cmp.i246.i_0_107 #b0) a!4))))
      (a!6 (and (= cmp21.i.i_0_120 #b1)
                (and (= cmp1.i248.i_0_110 #b0)
                     (and (= cmp.i246.i_0_107 #b0) a!4))))
      (a!7 (or (and (= cmp1.i248.i_0_110 #b1)
                    (and (= cmp.i246.i_0_107 #b0) a!4))
               (and (= cmp.i246.i_0_107 #b1) a!4)))
      (a!19 (and (= dst_reg_0_3 i28.i_0_95)
                 (= add.i40.i_0_96
                    (bvadd i20.i_0_28 src_reg1.sroa.11.0.copyload_0_23))
                 (= add3.i.i_0_97
                    (bvadd i28.i_0_95 src_reg1.sroa.3.0.copyload_0_22))
                 (= add4.i.i_0_98 (bvadd add.i40.i_0_96 add3.i.i_0_97))
                 (= xor.i.i_0_99 (bvxor add4.i.i_0_98 add3.i.i_0_97))
                 (= or.i.i_0_100
                    (bvor i20.i_0_28 src_reg1.sroa.11.0.copyload_0_23))
                 (= or7.i.i_0_101 (bvor or.i.i_0_100 xor.i.i_0_99))
                 (= neg.i.i_0_103 (bvxor or7.i.i_0_101 #xffffffffffffffff))
                 (= and.i.i_0_104 (bvand add3.i.i_0_97 neg.i.i_0_103))
                 (= dst_reg_0_50 i.i245.i_0_105)
                 (ite (bvsgt i.i245.i_0_105 #xffffffffffffffff)
                      (= cmp.i246.i_0_107 #b1)
                      (= cmp.i246.i_0_107 #b0))
                 a!18
                 (=> (and (= cmp31.i_0_71 #b0) a!2)
                     (and (= src_reg_0_55 src_reg_0_85)
                          (= src_reg_0_56 src_reg_0_86)
                          (= src_reg_0_57 src_reg_0_87)
                          (= src_reg_0_58 src_reg_0_88)
                          (= src_reg_0_59 src_reg_0_89)
                          (= src_reg_0_60 src_reg_0_90)
                          (= src_reg_0_61 src_reg_0_91)
                          (= src_reg_0_62 src_reg_0_92)
                          (= src_reg_0_63 src_reg_0_93)
                          (= src_reg_0_64 src_reg_0_94)
                          (= dst_reg_0_45 dst_reg_0_75)
                          (= dst_reg_0_46 dst_reg_0_76)
                          (= dst_reg_0_47 dst_reg_0_77)
                          (= dst_reg_0_48 dst_reg_0_78)
                          (= dst_reg_0_49 dst_reg_0_79)
                          (= dst_reg_0_50 dst_reg_0_80)
                          (= dst_reg_0_51 dst_reg_0_81)
                          (= add25.i_0_66 dst_reg_0_82)
                          (= add40.i_0_74 dst_reg_0_83)
                          (= dst_reg_0_54 dst_reg_0_84)))))
      (a!20 (=> (and (= cmp1.i248.i_0_110 #b0)
                     (and (= cmp.i246.i_0_107 #b0) a!4))
                (and (= dst_reg_0_83 i28.i.i_0_118)
                     (ite (bvsgt i28.i.i_0_118 #xffffffffffffffff)
                          (= cmp21.i.i_0_120 #b1)
                          (= cmp21.i.i_0_120 #b0))
                     (= dst_reg_0_82 i29.i.i_0_121))))
      (a!24 (=> (and (= cmp.i246.i_0_107 #b0) a!4)
                (and (= dst_reg_0_51 i24.i.i_0_108)
                     (ite (bvslt i24.i.i_0_108 #x0000000000000000)
                          (= cmp1.i248.i_0_110 #b1)
                          (= cmp1.i248.i_0_110 #b0))))))
(let ((a!8 (or (and (= cmp40.i.i_0_125 #b1) a!5)
               (and (= cmp40.i.i_0_125 #b0) a!5)
               a!6
               a!7))
      (a!10 (and (= dst_reg_0_135 i.i253.i_0_148)
                 (= dst_reg_0_136 i5.i255.i_0_149)
                 (= xor.i.i.i_0_150 (bvxor i5.i255.i_0_149 i.i253.i_0_148))
                 (ite (= xor.i.i.i_0_150 #x0000000000000000)
                      (= cmp.i.i.i.i_0_152 #b1)
                      (= cmp.i.i.i.i_0_152 #b0))
                 (=> a!7
                     (and (= src_reg_0_85 src_reg_0_138)
                          (= src_reg_0_86 src_reg_0_139)
                          (= src_reg_0_87 src_reg_0_140)
                          (= src_reg_0_88 src_reg_0_141)
                          (= src_reg_0_89 src_reg_0_142)
                          (= src_reg_0_90 src_reg_0_143)
                          (= src_reg_0_91 src_reg_0_144)
                          (= src_reg_0_92 src_reg_0_145)
                          (= src_reg_0_93 src_reg_0_146)
                          (= src_reg_0_94 src_reg_0_147)
                          (= dst_reg_0_75 dst_reg_0_128)
                          (= dst_reg_0_76 dst_reg_0_129)
                          (= dst_reg_0_77 dst_reg_0_130)
                          (= and.i.i_0_104 dst_reg_0_131)
                          (= or7.i.i_0_101 dst_reg_0_132)
                          (= cond.i250.i_0_113 dst_reg_0_133)
                          (= cond17.i.i_0_117 dst_reg_0_134)
                          (= cond.i250.i_0_113 dst_reg_0_135)
                          (= cond17.i.i_0_117 dst_reg_0_136)
                          (= dst_reg_0_84 dst_reg_0_137)))
                 (=> a!6
                     (and (= src_reg_0_85 src_reg_0_138)
                          (= src_reg_0_86 src_reg_0_139)
                          (= src_reg_0_87 src_reg_0_140)
                          (= src_reg_0_88 src_reg_0_141)
                          (= src_reg_0_89 src_reg_0_142)
                          (= src_reg_0_90 src_reg_0_143)
                          (= src_reg_0_91 src_reg_0_144)
                          (= src_reg_0_92 src_reg_0_145)
                          (= src_reg_0_93 src_reg_0_146)
                          (= src_reg_0_94 src_reg_0_147)
                          (= dst_reg_0_75 dst_reg_0_128)
                          (= dst_reg_0_76 dst_reg_0_129)
                          (= dst_reg_0_77 dst_reg_0_130)
                          (= and.i.i_0_104 dst_reg_0_131)
                          (= or7.i.i_0_101 dst_reg_0_132)
                          (= i29.i.i_0_121 dst_reg_0_133)
                          (= cond36.i.i_0_123 dst_reg_0_134)
                          (= dst_reg_0_82 dst_reg_0_135)
                          (= cond36.i.i_0_123 dst_reg_0_136)
                          (= dst_reg_0_84 dst_reg_0_137)))
                 (=> (and (= cmp40.i.i_0_125 #b0) a!5)
                     (and (= src_reg_0_85 src_reg_0_138)
                          (= src_reg_0_86 src_reg_0_139)
                          (= src_reg_0_87 src_reg_0_140)
                          (= src_reg_0_88 src_reg_0_141)
                          (= src_reg_0_89 src_reg_0_142)
                          (= src_reg_0_90 src_reg_0_143)
                          (= src_reg_0_91 src_reg_0_144)
                          (= src_reg_0_92 src_reg_0_145)
                          (= src_reg_0_93 src_reg_0_146)
                          (= src_reg_0_94 src_reg_0_147)
                          (= dst_reg_0_75 dst_reg_0_128)
                          (= dst_reg_0_76 dst_reg_0_129)
                          (= dst_reg_0_77 dst_reg_0_130)
                          (= and.i.i_0_104 dst_reg_0_131)
                          (= or7.i.i_0_101 dst_reg_0_132)
                          (= dst_reg_0_80 dst_reg_0_133)
                          (= dst_reg_0_81 dst_reg_0_134)
                          (= dst_reg_0_82 dst_reg_0_135)
                          (= dst_reg_0_83 dst_reg_0_136)
                          (= dst_reg_0_84 dst_reg_0_137)))
                 (=> (and (= cmp40.i.i_0_125 #b1) a!5)
                     (and (= src_reg_0_85 src_reg_0_138)
                          (= src_reg_0_86 src_reg_0_139)
                          (= src_reg_0_87 src_reg_0_140)
                          (= src_reg_0_88 src_reg_0_141)
                          (= src_reg_0_89 src_reg_0_142)
                          (= src_reg_0_90 src_reg_0_143)
                          (= src_reg_0_91 src_reg_0_144)
                          (= src_reg_0_92 src_reg_0_145)
                          (= src_reg_0_93 src_reg_0_146)
                          (= src_reg_0_94 src_reg_0_147)
                          (= dst_reg_0_75 dst_reg_0_128)
                          (= dst_reg_0_76 dst_reg_0_129)
                          (= dst_reg_0_77 dst_reg_0_130)
                          (= and.i.i_0_104 dst_reg_0_131)
                          (= or7.i.i_0_101 dst_reg_0_132)
                          (= cond53.i.i_0_127 dst_reg_0_133)
                          (= i28.i.i_0_118 dst_reg_0_134)
                          (= cond53.i.i_0_127 dst_reg_0_135)
                          (= dst_reg_0_83 dst_reg_0_136)
                          (= dst_reg_0_84 dst_reg_0_137)))))
      (a!13 (=> (and (= cmp40.i.i_0_125 #b1) a!5)
                (and (ite (bvugt i.i245.i_0_105 i29.i.i_0_121)
                          (= cmp48.i.i_0_126 #b1)
                          (= cmp48.i.i_0_126 #b0))
                     (ite (= cmp48.i.i_0_126 #b1)
                          (= cond53.i.i_0_127 i.i245.i_0_105)
                          (= cond53.i.i_0_127 i29.i.i_0_121)))))
      (a!21 (=> a!6
                (and (ite (bvult i24.i.i_0_108 i28.i.i_0_118)
                          (= cmp31.i.i_0_122 #b1)
                          (= cmp31.i.i_0_122 #b0))
                     (ite (= cmp31.i.i_0_122 #b1)
                          (= cond36.i.i_0_123 i24.i.i_0_108)
                          (= cond36.i.i_0_123 i28.i.i_0_118)))))
      (a!22 (=> a!5
                (and (ite (bvslt i29.i.i_0_121 #x0000000000000000)
                          (= cmp40.i.i_0_125 #b1)
                          (= cmp40.i.i_0_125 #b0)))))
      (a!25 (=> a!7
                (and (= dst_reg_0_82 i25.i.i_0_111)
                     (ite (bvugt i.i245.i_0_105 i25.i.i_0_111)
                          (= cmp4.i.i_0_112 #b1)
                          (= cmp4.i.i_0_112 #b0))
                     (ite (= cmp4.i.i_0_112 #b1)
                          (= cond.i250.i_0_113 i.i245.i_0_105)
                          (= cond.i250.i_0_113 i25.i.i_0_111))
                     (= dst_reg_0_51 i26.i.i_0_114)
                     (= dst_reg_0_83 i27.i.i_0_115)
                     (ite (bvult i26.i.i_0_114 i27.i.i_0_115)
                          (= cmp12.i.i_0_116 #b1)
                          (= cmp12.i.i_0_116 #b0))
                     (ite (= cmp12.i.i_0_116 #b1)
                          (= cond17.i.i_0_117 i26.i.i_0_114)
                          (= cond17.i.i_0_117 i27.i.i_0_115))))))
(let ((a!9 (=> (and (= cmp.i.i.i.i_0_152 #b0) a!8)
               (and (ite (bvult xor.i.i.i_0_150 #x0000000100000000)
                         (= tobool.not.i.i.i.i.i_0_154 #b1)
                         (= tobool.not.i.i.i.i.i_0_154 #b0))
                    (= shl.i.i.i.i.i_0_156
                       (bvshl xor.i.i.i_0_150 #x0000000000000020))
                    (ite (= tobool.not.i.i.i.i.i_0_154 #b1)
                         (= spec.select.i.i.i.i.i_0_157 shl.i.i.i.i.i_0_156)
                         (= spec.select.i.i.i.i.i_0_157 xor.i.i.i_0_150))
                    (ite (= tobool.not.i.i.i.i.i_0_154 #b1)
                         (= spec.select17.i.i.i.i.i_0_160 #x0000001f)
                         (= spec.select17.i.i.i.i.i_0_160 #x0000003f))
                    (ite (bvult spec.select.i.i.i.i.i_0_157 #x0001000000000000)
                         (= tobool2.not.i.i.i.i.i_0_162 #b1)
                         (= tobool2.not.i.i.i.i.i_0_162 #b0))
                    (= sub4.i.i.i.i.i_0_164
                       (bvadd spec.select17.i.i.i.i.i_0_160 #xfffffff0))
                    (= shl5.i.i.i.i.i_0_166
                       (bvshl spec.select.i.i.i.i.i_0_157 #x0000000000000010))
                    (ite (= tobool2.not.i.i.i.i.i_0_162 #b1)
                         (= word.addr.1.i.i.i.i.i_0_167 shl5.i.i.i.i.i_0_166)
                         (= word.addr.1.i.i.i.i.i_0_167
                            spec.select.i.i.i.i.i_0_157))
                    (ite (= tobool2.not.i.i.i.i.i_0_162 #b1)
                         (= num.1.i.i.i.i.i_0_168 sub4.i.i.i.i.i_0_164)
                         (= num.1.i.i.i.i.i_0_168 spec.select17.i.i.i.i.i_0_160))
                    (ite (bvult word.addr.1.i.i.i.i.i_0_167 #x0100000000000000)
                         (= tobool8.not.i.i.i.i.i_0_170 #b1)
                         (= tobool8.not.i.i.i.i.i_0_170 #b0))
                    (= sub10.i.i.i.i.i_0_172
                       (bvadd num.1.i.i.i.i.i_0_168 #xfffffff8))
                    (= shl11.i.i.i.i.i_0_174
                       (bvshl word.addr.1.i.i.i.i.i_0_167 #x0000000000000008))
                    (ite (= tobool8.not.i.i.i.i.i_0_170 #b1)
                         (= word.addr.2.i.i.i.i.i_0_175 shl11.i.i.i.i.i_0_174)
                         (= word.addr.2.i.i.i.i.i_0_175
                            word.addr.1.i.i.i.i.i_0_167))
                    (ite (= tobool8.not.i.i.i.i.i_0_170 #b1)
                         (= num.2.i.i.i.i.i_0_176 sub10.i.i.i.i.i_0_172)
                         (= num.2.i.i.i.i.i_0_176 num.1.i.i.i.i.i_0_168))
                    (ite (bvult word.addr.2.i.i.i.i.i_0_175 #x1000000000000000)
                         (= tobool14.not.i.i.i.i.i_0_178 #b1)
                         (= tobool14.not.i.i.i.i.i_0_178 #b0))
                    (= sub16.i.i.i.i.i_0_180
                       (bvadd num.2.i.i.i.i.i_0_176 #xfffffffc))
                    (= shl17.i.i.i.i.i_0_182
                       (bvshl word.addr.2.i.i.i.i.i_0_175 #x0000000000000004))
                    (ite (= tobool14.not.i.i.i.i.i_0_178 #b1)
                         (= word.addr.3.i.i.i.i.i_0_183 shl17.i.i.i.i.i_0_182)
                         (= word.addr.3.i.i.i.i.i_0_183
                            word.addr.2.i.i.i.i.i_0_175))
                    (ite (= tobool14.not.i.i.i.i.i_0_178 #b1)
                         (= num.3.i.i.i.i.i_0_184 sub16.i.i.i.i.i_0_180)
                         (= num.3.i.i.i.i.i_0_184 num.2.i.i.i.i.i_0_176))
                    (ite (bvult word.addr.3.i.i.i.i.i_0_183 #x4000000000000000)
                         (= tobool20.not.i.i.i.i.i_0_186 #b1)
                         (= tobool20.not.i.i.i.i.i_0_186 #b0))
                    (= sub22.i.i.i.i.i_0_188
                       (bvadd num.3.i.i.i.i.i_0_184 #x000000fe))
                    (= shl23.i.i.i.i.i_0_190
                       (bvshl word.addr.3.i.i.i.i.i_0_183 #x0000000000000002))
                    (ite (= tobool20.not.i.i.i.i.i_0_186 #b1)
                         (= word.addr.4.i.i.i.i.i_0_191 shl23.i.i.i.i.i_0_190)
                         (= word.addr.4.i.i.i.i.i_0_191
                            word.addr.3.i.i.i.i.i_0_183))
                    (ite (= tobool20.not.i.i.i.i.i_0_186 #b1)
                         (= num.4.i.i.i.i.i_0_192 sub22.i.i.i.i.i_0_188)
                         (= num.4.i.i.i.i.i_0_192 num.3.i.i.i.i.i_0_184))
                    (= word.addr.4.lobit.i.i.i.i.i.neg_0_194
                       (bvlshr word.addr.4.i.i.i.i.i_0_191 #x000000000000003f))
                    (= i.i.i.i.i.i.neg_0_195
                       ((_ extract 31 0) word.addr.4.lobit.i.i.i.i.i.neg_0_194))
                    (= conv.i.i.i.i_0_196
                       (bvadd num.4.i.i.i.i.i_0_192 i.i.i.i.i.i.neg_0_195))
                    (= phi.bo_0_198 (bvand conv.i.i.i.i_0_196 #x000000ff)))))
      (a!11 (and (ite (bvugt retval.0.i.i.i.i_0_199 #x0000003f)
                      (= cmp.i.i.i_0_201 #b1)
                      (= cmp.i.i.i_0_201 #b0))
                 (= sh_prom.i.i.i_0_202
                    ((_ zero_extend 32) retval.0.i.i.i.i_0_199))
                 (= notmask.i.i.i_0_204
                    (bvshl #xffffffffffffffff sh_prom.i.i.i_0_202))
                 (= sub.i.i.i_0_206
                    (bvxor notmask.i.i.i_0_204 #xffffffffffffffff))
                 (= and.i.i256.i_0_207
                    (bvand notmask.i.i.i_0_204 i.i253.i_0_148))
                 (ite (= cmp.i.i.i_0_201 #b1)
                      (= retval.sroa.0.0.i.i.i_0_209 #x0000000000000000)
                      (= retval.sroa.0.0.i.i.i_0_209 and.i.i256.i_0_207))
                 (ite (= cmp.i.i.i_0_201 #b1)
                      (= retval.sroa.3.0.i.i.i_0_211 #xffffffffffffffff)
                      (= retval.sroa.3.0.i.i.i_0_211 sub.i.i.i_0_206))
                 (= or.i.i259.i_0_212
                    (bvor retval.sroa.0.0.i.i.i_0_209 and.i.i_0_104))
                 (= and.i1.i260.i_0_213
                    (bvand retval.sroa.3.0.i.i.i_0_211 or7.i.i_0_101))
                 (= neg.i.i.i_0_215
                    (bvxor and.i1.i260.i_0_213 #xffffffffffffffff))
                 (= and4.i.i.i_0_216 (bvand or.i.i259.i_0_212 neg.i.i.i_0_215))
                 (=> (and (= cmp.i.i.i.i_0_152 #b0) a!8)
                     (= retval.0.i.i.i.i_0_199 phi.bo_0_198))
                 (=> (and (= cmp.i.i.i.i_0_152 #b1) a!8)
                     (= retval.0.i.i.i.i_0_199 #x00000000))
                 (= dst_reg_0_128 dst_reg_0_218)
                 (= dst_reg_0_129 dst_reg_0_219)
                 (= dst_reg_0_130 dst_reg_0_220)
                 (= and4.i.i.i_0_216 dst_reg_0_221)
                 (= and.i1.i260.i_0_213 dst_reg_0_222)
                 (= dst_reg_0_133 dst_reg_0_223)
                 (= dst_reg_0_134 dst_reg_0_224)
                 (= dst_reg_0_135 dst_reg_0_225)
                 (= dst_reg_0_136 dst_reg_0_226)
                 (= dst_reg_0_137 dst_reg_0_227)
                 (= src_reg_0_138 src_reg_0_228)
                 (= src_reg_0_139 src_reg_0_229)
                 (= src_reg_0_140 src_reg_0_230)
                 (= src_reg_0_141 src_reg_0_231)
                 (= src_reg_0_142 src_reg_0_232)
                 (= src_reg_0_143 src_reg_0_233)
                 (= src_reg_0_144 src_reg_0_234)
                 (= src_reg_0_145 src_reg_0_235)
                 (= src_reg_0_146 src_reg_0_236)
                 (= src_reg_0_147 src_reg_0_237))))
(let ((a!12 (=> (or (and (= cmp.i.i.i.i_0_152 #b0) a!8)
                    (and (= cmp.i.i.i.i_0_152 #b1) a!8))
                a!11)))
  (and a!9
       (=> a!8 a!10)
       a!12
       a!13
       a!14
       (= dst_reg_0_0 dst_reg_0_0)
       (= dst_reg_0_1 dst_reg_0_1)
       (= dst_reg_0_2 dst_reg_0_2)
       (= dst_reg_0_3 dst_reg_0_3)
       (= dst_reg_0_4 dst_reg_0_4)
       (= dst_reg_0_5 dst_reg_0_5)
       (= dst_reg_0_6 dst_reg_0_6)
       (= dst_reg_0_7 dst_reg_0_7)
       (= dst_reg_0_8 dst_reg_0_8)
       (= dst_reg_0_9 dst_reg_0_9)
       (= src_reg_0_10 src_reg_0_10)
       (= src_reg_0_11 src_reg_0_11)
       (= src_reg_0_12 src_reg_0_12)
       (= src_reg_0_13 src_reg_0_13)
       (= src_reg_0_14 src_reg_0_14)
       (= src_reg_0_15 src_reg_0_15)
       (= src_reg_0_16 src_reg_0_16)
       (= src_reg_0_17 src_reg_0_17)
       (= src_reg_0_18 src_reg_0_18)
       (= src_reg_0_19 src_reg_0_19)
       (= src_reg_0_13 src_reg1.sroa.3.0.copyload_0_22)
       (= src_reg_0_14 src_reg1.sroa.11.0.copyload_0_23)
       (= src_reg_0_15 src_reg1.sroa.15.0.copyload_0_24)
       (= src_reg_0_16 src_reg1.sroa.18.0.copyload_0_25)
       (= src_reg_0_17 src_reg1.sroa.21.0.copyload_0_26)
       (= src_reg_0_18 src_reg1.sroa.24.0.copyload_0_27)
       (= dst_reg_0_4 i20.i_0_28)
       (= dst_reg_0_5 i23.i_0_29)
       (= add.i.i_0_30 (bvadd i23.i_0_29 src_reg1.sroa.15.0.copyload_0_24))
       (ite (bvslt src_reg1.sroa.15.0.copyload_0_24 #x0000000000000000)
            (= cmp.i.i_0_32 #b1)
            (= cmp.i.i_0_32 #b0))
       (ite (bvsgt add.i.i_0_30 i23.i_0_29)
            (= cmp1.i.i_0_33 #b1)
            (= cmp1.i.i_0_33 #b0))
       (ite (bvslt add.i.i_0_30 i23.i_0_29)
            (= cmp2.i.i_0_34 #b1)
            (= cmp2.i.i_0_34 #b0))
       (ite (= cmp.i.i_0_32 #b1)
            (= retval.0.i.i_0_35 cmp1.i.i_0_33)
            (= retval.0.i.i_0_35 cmp2.i.i_0_34))
       a!16
       a!17
       (=> a!4 a!19)
       a!20
       a!21
       a!22
       a!23
       a!24
       a!25)))))))))

;{"dst_reg":["dst_reg_0_0",[""],"dst_reg_0_1","dst_reg_0_2",["dst_reg_0_3","dst_reg_0_4"],"dst_reg_0_5","dst_reg_0_6","dst_reg_0_7","dst_reg_0_8","dst_reg_0_9"],"src_reg":["src_reg_0_10",[""],"src_reg_0_11","src_reg_0_12",["src_reg_0_13","src_reg_0_14"],"src_reg_0_15","src_reg_0_16","src_reg_0_17","src_reg_0_18","src_reg_0_19"]}
;{"dst_reg":["dst_reg_0_218",[""],"dst_reg_0_219","dst_reg_0_220",["dst_reg_0_221","dst_reg_0_222"],"dst_reg_0_223","dst_reg_0_224","dst_reg_0_225","dst_reg_0_226","dst_reg_0_227"],"src_reg":["src_reg_0_228",[""],"src_reg_0_229","src_reg_0_230",["src_reg_0_231","src_reg_0_232"],"src_reg_0_233","src_reg_0_234","src_reg_0_235","src_reg_0_236","src_reg_0_237"]}
